&CONTROL
    calculation   = "scf"
    forc_conv_thr =  1.00000e-03
    max_seconds   =  1.72800e+05
    nstep         = 100
    pseudo_dir    = "./pseudo"
    prefix = "HfN_111"
    outdir = "./tmp"
/

&SYSTEM
    a                         =  6.37739e+00
    c                         =  3.92192e+01
    degauss                   =  0.008
    ecutrho                   =  4.10199e+02
    ecutwfc                   =  4.55777e+01
    ibrav                     = 4
    nat                       = 28
    ntyp                      = 2
    occupations               = "smearing"
    smearing                  = "gaussian"
/

&ELECTRONS
    conv_thr         =  1.00000e-06
    electron_maxstep = 200
    mixing_beta      =  4.00000e-01
    mixing_mode      = "local-TF"
    startingpot      = "atomic"
    startingwfc      = "atomic+random"
/

K_POINTS {automatic}
 12  12  3  0 0 1

ATOMIC_SPECIES
Hf    178.49000  Hf.pbe-spn-rrkjus_psl.1.0.0.UPF
N      14.00674  N.pbe-n-rrkjus_psl.1.0.0.UPF

ATOMIC_POSITIONS (alat)
Hf       0.250009246   0.144343338   2.040719628
Hf       0.749990754   0.144343338   2.040719628
Hf       0.000000000   0.577350000   2.040764507
Hf       0.500000000   0.577339324   2.040719628
N       -0.500000000   0.866025000   1.838711087
N        0.000000000   0.866069996   1.838692963
N       -0.250038968   0.432990502   1.838692963
N        0.250038968   0.432990502   1.838692963
Hf       0.000000000   0.288685790   1.646589791
Hf       0.500000000   0.288675000   1.646494239
Hf      -0.249990656   0.721682605   1.646589791
Hf       0.249990656   0.721682605   1.646589791
N        0.250061328   0.144373408   1.434246459
N        0.749938672   0.144373408   1.434246459
N        0.000000000   0.577350000   1.434224625
N        0.500000000   0.577279184   1.434246459
Hf       0.500000000   0.866025000   1.221990000
Hf      -0.249982179   0.433023289   1.221919424
Hf       0.249982179   0.433023289   1.221919424
Hf       0.000000000   0.866004422   1.221919424
N        0.000000000   0.288638497   1.029789241
N        0.500000000   0.288675000   1.029845657
N       -0.250031612   0.721706251   1.029789241
N        0.250031612   0.721706251   1.029789241
Hf       0.249968745   0.144319955   0.827796586
Hf       0.750031255   0.144319955   0.827796586
Hf       0.000000000   0.577350000   0.827622695
Hf       0.500000000   0.577386090   0.827796586

